DIMENSION: 101
36
47
48
7
82
46
8
45
17
84
83
18
52
89
60
5
61
85
93
99
96
59
98
92
37
100
91
16
86
38
44
14
97
95
6
94
13
87
42
43
15
57
2
41
22
74
73
40
58
53
101
27
28
26
21
72
75
56
23
67
39
4
25
55
54
24
29
80
68
12
76
77
3
79
78
34
81
33
50
69
1
51
9
35
71
65
66
20
30
70
32
90
63
11
10
31
88
62
19
64
49
